17	4
27	24	21	20	
0	0	0	0	0	3	2	3	4	
5	3	8	1	1	3	7	17	17	
9	2	3	4	1	3	5	9	11	
2	8	5	6	3	3	10	12	17	
6	3	7	3	5	3	6	7	8	
250	9	8	3	6	3	15	17	17	
50	10	3	9	5	3	13	14	17	
150	6	7	3	10	3	10	13	17	
225	8	10	10	2	3	12	13	14	
100	5	3	7	8	3	17	17	17	
75	6	9	1	1	3	17	17	17	
100	7	5	5	9	3	15	16	17	
9	7	4	5	6	2	17	17	
10	7	3	9	1	3	17	17	17	
2	1	5	2	10	3	17	17	17	
1	5	1	3	1	3	17	17	17	
0	0	0	0	0	0	
